
===== New CPLEX run =====
Instance: /home/yorig/tuner/mpils-tests/instances/miplib/medium-1/neos-3555904-turama.mps
Config: /scratch/yorig/mpils-results-grid-seconds-10-no-mip-start/medium-1/4proc/seed-3/10_neos-3555904-turama_seed-3_20260503_044838/iterated_local_search/run_4_worker_3/ils_config_8791904279484051962.prm
========================

Selected objective sense:  MINIMIZE
Selected objective  name:  Obj
Selected RHS        name:  RHS
Selected bound      name:  Bound
Version identifier: 22.1.2.0 | 2024-11-26 | 0edbb82fd
CPXPARAM_Threads                                 8
CPXPARAM_Parallel                                1
CPXPARAM_MIP_Cuts_Cliques                        3
CPXPARAM_MIP_Strategy_SubAlgorithm               3
CPXPARAM_Preprocessing_BoundStrength             0
CPXPARAM_MIP_Cuts_Implied                        1
CPXPARAM_MIP_Strategy_Probe                      3
CPXPARAM_MIP_Limits_GomoryCand                   25
CPXPARAM_MIP_Cuts_PathCut                        1
CPXPARAM_MIP_Cuts_Disjunctive                    1
CPXPARAM_Emphasis_MIP                            4
CPXPARAM_TimeLimit                               10
Tried aggregator 4 times.
MIP Presolve eliminated 87507 rows and 7482 columns.
MIP Presolve modified 92868 coefficients.
Aggregator did 11198 substitutions.
Reduced MIP has 47788 rows, 18781 columns, and 202291 nonzeros.
Reduced MIP has 18781 binaries, 0 generals, 0 SOSs, and 0 indicators.
Presolve time = 0.63 sec. (1120.86 ticks)
Probing fixed 614 vars, tightened 0 bounds.
Probing changed sense of 1 constraints.
Probing time = 1.31 sec. (792.80 ticks)
Tried aggregator 2 times.
Detecting symmetries...
MIP Presolve eliminated 3101 rows and 633 columns.
MIP Presolve modified 1849 coefficients.
Aggregator did 66 substitutions.
Reduced MIP has 44620 rows, 18082 columns, and 188898 nonzeros.
Reduced MIP has 18082 binaries, 0 generals, 0 SOSs, and 0 indicators.
Presolve time = 0.37 sec. (751.75 ticks)
Probing fixed 1939 vars, tightened 0 bounds.
Probing changed sense of 1 constraints.
Probing time = 1.96 sec. (1640.67 ticks)

        Nodes                                         Cuts/
   Node  Left     Objective  IInf  Best Integer    Best Bound    ItCnt     Gap

*     0+    1                          -33.2000   -37184.0000              --- 
*     0+    1                          -34.7000   -37184.0000              --- 
      0     1  -1.00000e+37     0      -34.7000   -37184.0000        0     --- 

Clique cuts applied:  0
Implied bound cuts applied:  0
Flow path cuts applied:  0
Disjunctive cuts applied:  0
Cone linearizations applied:  0

Root node processing (before b&c):
  Real time             =   10.02 sec. (11779.17 ticks)
Parallel b&c, 8 threads:
  Real time             =    0.00 sec. (0.00 ticks)
  Sync time (average)   =    0.00 sec.
  Wait time (average)   =    0.00 sec.
                          ------------
Total (root+branch&cut) =   10.02 sec. (11779.17 ticks)
Gap: 107058%
Upper bound: -34.7
Lower bound: -37184
End of CPLEX run. Time: 10.0285 seconds

===== New CPLEX run =====
Instance: /home/yorig/tuner/mpils-tests/instances/miplib/medium-1/neos-3555904-turama.mps
Config: /scratch/yorig/mpils-results-grid-seconds-10-no-mip-start/medium-1/4proc/seed-3/10_neos-3555904-turama_seed-3_20260503_044838/iterated_local_search/run_4_worker_3/ils_config_11089037307982404984.prm
========================

Selected objective sense:  MINIMIZE
Selected objective  name:  Obj
Selected RHS        name:  RHS
Selected bound      name:  Bound
Version identifier: 22.1.2.0 | 2024-11-26 | 0edbb82fd
CPXPARAM_Threads                                 8
CPXPARAM_Parallel                                1
CPXPARAM_MIP_Cuts_Cliques                        3
CPXPARAM_MIP_Strategy_SubAlgorithm               3
CPXPARAM_Preprocessing_BoundStrength             0
CPXPARAM_MIP_Cuts_Implied                        1
CPXPARAM_MIP_Strategy_Probe                      3
CPXPARAM_MIP_Limits_GomoryCand                   150
CPXPARAM_MIP_Cuts_PathCut                        1
CPXPARAM_MIP_Cuts_Disjunctive                    1
CPXPARAM_Emphasis_MIP                            4
CPXPARAM_TimeLimit                               10
Tried aggregator 4 times.
MIP Presolve eliminated 87507 rows and 7482 columns.
MIP Presolve modified 92868 coefficients.
Aggregator did 11198 substitutions.
Reduced MIP has 47788 rows, 18781 columns, and 202291 nonzeros.
Reduced MIP has 18781 binaries, 0 generals, 0 SOSs, and 0 indicators.
Presolve time = 0.63 sec. (1120.86 ticks)
Probing fixed 614 vars, tightened 0 bounds.
Probing changed sense of 1 constraints.
Probing time = 1.28 sec. (792.80 ticks)
Tried aggregator 2 times.
Detecting symmetries...
MIP Presolve eliminated 3101 rows and 633 columns.
MIP Presolve modified 1849 coefficients.
Aggregator did 66 substitutions.
Reduced MIP has 44620 rows, 18082 columns, and 188898 nonzeros.
Reduced MIP has 18082 binaries, 0 generals, 0 SOSs, and 0 indicators.
Presolve time = 0.37 sec. (751.75 ticks)
Probing fixed 1939 vars, tightened 0 bounds.
Probing changed sense of 1 constraints.
Probing time = 2.07 sec. (1640.67 ticks)

        Nodes                                         Cuts/
   Node  Left     Objective  IInf  Best Integer    Best Bound    ItCnt     Gap

*     0+    1                          -33.2000   -37184.0000              --- 
*     0+    1                          -34.7000   -37184.0000              --- 
      0     1  -1.00000e+37     0      -34.7000   -37184.0000        0     --- 

Clique cuts applied:  0
Implied bound cuts applied:  0
Flow path cuts applied:  0
Disjunctive cuts applied:  0
Cone linearizations applied:  0

Root node processing (before b&c):
  Real time             =   10.01 sec. (11717.19 ticks)
Parallel b&c, 8 threads:
  Real time             =    0.00 sec. (0.00 ticks)
  Sync time (average)   =    0.00 sec.
  Wait time (average)   =    0.00 sec.
                          ------------
Total (root+branch&cut) =   10.01 sec. (11717.19 ticks)
Gap: 107058%
Upper bound: -34.7
Lower bound: -37184
End of CPLEX run. Time: 10.0144 seconds

===== New CPLEX run =====
Instance: /home/yorig/tuner/mpils-tests/instances/miplib/medium-1/neos-3555904-turama.mps
Config: /scratch/yorig/mpils-results-grid-seconds-10-no-mip-start/medium-1/4proc/seed-3/10_neos-3555904-turama_seed-3_20260503_044838/iterated_local_search/run_4_worker_3/ils_config_11224969515090355579.prm
========================

Selected objective sense:  MINIMIZE
Selected objective  name:  Obj
Selected RHS        name:  RHS
Selected bound      name:  Bound
Version identifier: 22.1.2.0 | 2024-11-26 | 0edbb82fd
CPXPARAM_Threads                                 8
CPXPARAM_Parallel                                1
CPXPARAM_MIP_Cuts_Cliques                        3
CPXPARAM_MIP_Strategy_SubAlgorithm               3
CPXPARAM_Preprocessing_BoundStrength             0
CPXPARAM_MIP_Cuts_Implied                        1
CPXPARAM_MIP_Strategy_Probe                      3
CPXPARAM_MIP_Limits_GomoryCand                   10
CPXPARAM_MIP_Cuts_PathCut                        1
CPXPARAM_MIP_Cuts_Disjunctive                    1
CPXPARAM_Emphasis_MIP                            4
CPXPARAM_TimeLimit                               10
Tried aggregator 4 times.
MIP Presolve eliminated 87507 rows and 7482 columns.
MIP Presolve modified 92868 coefficients.
Aggregator did 11198 substitutions.
Reduced MIP has 47788 rows, 18781 columns, and 202291 nonzeros.
Reduced MIP has 18781 binaries, 0 generals, 0 SOSs, and 0 indicators.
Presolve time = 0.63 sec. (1120.86 ticks)
Probing fixed 614 vars, tightened 0 bounds.
Probing changed sense of 1 constraints.
Probing time = 1.27 sec. (792.80 ticks)
Tried aggregator 2 times.
Detecting symmetries...
MIP Presolve eliminated 3101 rows and 633 columns.
MIP Presolve modified 1849 coefficients.
Aggregator did 66 substitutions.
Reduced MIP has 44620 rows, 18082 columns, and 188898 nonzeros.
Reduced MIP has 18082 binaries, 0 generals, 0 SOSs, and 0 indicators.
Presolve time = 0.37 sec. (751.75 ticks)
Probing fixed 1939 vars, tightened 0 bounds.
Probing changed sense of 1 constraints.
Probing time = 2.01 sec. (1640.67 ticks)

        Nodes                                         Cuts/
   Node  Left     Objective  IInf  Best Integer    Best Bound    ItCnt     Gap

*     0+    1                          -33.2000   -37184.0000              --- 
*     0+    1                          -34.7000   -37184.0000              --- 
      0     1  -1.00000e+37     0      -34.7000   -37184.0000        0     --- 

Clique cuts applied:  0
Implied bound cuts applied:  0
Flow path cuts applied:  0
Disjunctive cuts applied:  0
Cone linearizations applied:  0

Root node processing (before b&c):
  Real time             =   10.01 sec. (11494.11 ticks)
Parallel b&c, 8 threads:
  Real time             =    0.00 sec. (0.00 ticks)
  Sync time (average)   =    0.00 sec.
  Wait time (average)   =    0.00 sec.
                          ------------
Total (root+branch&cut) =   10.01 sec. (11494.11 ticks)
Gap: 107058%
Upper bound: -34.7
Lower bound: -37184
End of CPLEX run. Time: 10.0226 seconds

===== New CPLEX run =====
Instance: /home/yorig/tuner/mpils-tests/instances/miplib/medium-1/neos-3555904-turama.mps
Config: /scratch/yorig/mpils-results-grid-seconds-10-no-mip-start/medium-1/4proc/seed-3/10_neos-3555904-turama_seed-3_20260503_044838/iterated_local_search/run_4_worker_3/ils_config_329523072642576209.prm
========================

Selected objective sense:  MINIMIZE
Selected objective  name:  Obj
Selected RHS        name:  RHS
Selected bound      name:  Bound
Version identifier: 22.1.2.0 | 2024-11-26 | 0edbb82fd
CPXPARAM_Threads                                 8
CPXPARAM_Parallel                                1
CPXPARAM_MIP_Cuts_Cliques                        3
CPXPARAM_MIP_Strategy_SubAlgorithm               3
CPXPARAM_Preprocessing_BoundStrength             0
CPXPARAM_MIP_Cuts_Implied                        1
CPXPARAM_MIP_Strategy_Probe                      3
CPXPARAM_MIP_Limits_GomoryCand                   25
CPXPARAM_MIP_Cuts_Disjunctive                    1
CPXPARAM_Emphasis_MIP                            4
CPXPARAM_TimeLimit                               10
Tried aggregator 4 times.
MIP Presolve eliminated 87507 rows and 7482 columns.
MIP Presolve modified 92868 coefficients.
Aggregator did 11198 substitutions.
Reduced MIP has 47788 rows, 18781 columns, and 202291 nonzeros.
Reduced MIP has 18781 binaries, 0 generals, 0 SOSs, and 0 indicators.
Presolve time = 0.63 sec. (1120.86 ticks)
Probing fixed 614 vars, tightened 0 bounds.
Probing changed sense of 1 constraints.
Probing time = 1.30 sec. (792.80 ticks)
Tried aggregator 2 times.
Detecting symmetries...
MIP Presolve eliminated 3101 rows and 633 columns.
MIP Presolve modified 1849 coefficients.
Aggregator did 66 substitutions.
Reduced MIP has 44620 rows, 18082 columns, and 188898 nonzeros.
Reduced MIP has 18082 binaries, 0 generals, 0 SOSs, and 0 indicators.
Presolve time = 0.37 sec. (751.75 ticks)
